25 2
25 200
10
7
13
19
26
3
5
9
16
16
12
19
23
20
8
19
2
12
17
9
11
18
29
3
6
35 35 0 230 0 0
41 49 130 201 10 3
35 17 20 89 10 1
55 45 106 135 10 2
55 20 71 195 10 1
15 30 20 107 10 1
25 30 54 153 10 1
20 50 66 105 10 3
10 43 61 138 10 3
55 60 53 150 10 3
30 60 101 156 10 1
20 65 33 152 10 1
50 35 38 97 10 1
30 25 70 208 10 1
15 10 32 137 10 2
30 5 30 154 10 3
10 20 54 105 10 2
5 30 51 189 10 2
20 40 77 106 10 2
15 60 53 108 10 1
45 65 109 152 10 2
45 20 37 96 10 2
45 10 59 144 10 1
55 5 36 155 10 1
65 35 118 190 10 3
65 20 47 186 10 1
17 59 0 230 5 4
18 48 0 230 5 4
0 1
0 0
0 1
0 0
0 0
0 0
0 1
0 1
1 0
0 0
0 0
0 0
0 0
0 1
0 1
0 1
0 1
0 1
0 0
1 0
0 1
0 0
0 0
0 1
0 0
